909731
21 1 6578
1 10 6947
10 2 10593
2 35 10541
35 11 5412
11 8 17581
8 15 26227
15 16 36816
16 3 71701
3 14 30026
14 17 42391
17 9 102410
9 6 47658
6 36 22446
36 29 16895
29 38 745
38 13 18675
13 28 6411
28 31 12751
31 39 9087
39 25 4093
25 23 11530
23 34 31609
34 12 39715
12 33 3967
33 26 15458
26 37 14546
37 30 941
30 20 17244
20 32 24202
32 5 3290
5 24 63665
24 22 45980
22 4 23621
4 19 26533
19 40 13572
40 27 17541
27 18 12606
18 7 20722
7 21 17005
